(set-info :smt-lib-version 2.6)
(set-logic UF)
(set-info :source |Benchmarks from the paper: "Extending Sledgehammer with SMT Solvers" by Jasmin Blanchette, Sascha Bohme, and Lawrence C. Paulson, CADE 2011.  Translated to SMT2 by Andrew Reynolds and Morgan Deters.|)
(set-info :category "industrial")
(set-info :status sat)
(declare-sort S1 0)
(declare-sort S2 0)
(declare-sort S3 0)
(declare-sort S4 0)
(declare-sort S5 0)
(declare-sort S6 0)
(declare-sort S7 0)
(declare-sort S8 0)
(declare-sort S9 0)
(declare-sort S10 0)
(declare-sort S11 0)
(declare-sort S12 0)
(declare-sort S13 0)
(declare-sort S14 0)
(declare-sort S15 0)
(declare-sort S16 0)
(declare-sort S17 0)
(declare-sort S18 0)
(declare-sort S19 0)
(declare-sort S20 0)
(declare-sort S21 0)
(declare-sort S22 0)
(declare-sort S23 0)
(declare-sort S24 0)
(declare-sort S25 0)
(declare-sort S26 0)
(declare-sort S27 0)
(declare-sort S28 0)
(declare-sort S29 0)
(declare-sort S30 0)
(declare-sort S31 0)
(declare-sort S32 0)
(declare-sort S33 0)
(declare-sort S34 0)
(declare-sort S35 0)
(declare-sort S36 0)
(declare-sort S37 0)
(declare-sort S38 0)
(declare-sort S39 0)
(declare-sort S40 0)
(declare-sort S41 0)
(declare-sort S42 0)
(declare-sort S43 0)
(declare-sort S44 0)
(declare-sort S45 0)
(declare-sort S46 0)
(declare-sort S47 0)
(declare-sort S48 0)
(declare-sort S49 0)
(declare-sort S50 0)
(declare-sort S51 0)
(declare-sort S52 0)
(declare-sort S53 0)
(declare-sort S54 0)
(declare-sort S55 0)
(declare-sort S56 0)
(declare-sort S57 0)
(declare-sort S58 0)
(declare-sort S59 0)
(declare-sort S60 0)
(declare-sort S61 0)
(declare-sort S62 0)
(declare-sort S63 0)
(declare-sort S64 0)
(declare-sort S65 0)
(declare-sort S66 0)
(declare-sort S67 0)
(declare-sort S68 0)
(declare-sort S69 0)
(declare-sort S70 0)
(declare-sort S71 0)
(declare-sort S72 0)
(declare-sort S73 0)
(declare-sort S74 0)
(declare-fun f1 () S1)
(declare-fun f2 () S1)
(declare-fun f3 (S4 S3) S1)
(declare-fun f4 (S5 S3) S4)
(declare-fun f5 (S2) S5)
(declare-fun f6 (S6 S2) S1)
(declare-fun f7 (S7 S3) S6)
(declare-fun f8 (S8 S3) S7)
(declare-fun f9 () S8)
(declare-fun f10 (S11 S10) S1)
(declare-fun f11 (S12 S10) S11)
(declare-fun f12 (S9) S12)
(declare-fun f13 (S13 S9) S1)
(declare-fun f14 (S14 S10) S13)
(declare-fun f15 (S15 S10) S14)
(declare-fun f16 () S15)
(declare-fun f17 (S18 S17) S1)
(declare-fun f18 (S19 S10) S18)
(declare-fun f19 (S16) S19)
(declare-fun f20 (S20 S16) S1)
(declare-fun f21 (S21 S17) S20)
(declare-fun f22 (S22 S10) S21)
(declare-fun f23 () S22)
(declare-fun f24 (S25 S24) S1)
(declare-fun f25 (S26 S23) S25)
(declare-fun f26 (S4) S26)
(declare-fun f27 (S3 S4) S1)
(declare-fun f28 (S27 S24) S3)
(declare-fun f29 (S28 S23) S27)
(declare-fun f30 () S28)
(declare-fun f31 (S31 S30) S1)
(declare-fun f32 (S32 S29) S31)
(declare-fun f33 (S25) S32)
(declare-fun f34 (S24 S25) S1)
(declare-fun f35 (S33 S30) S24)
(declare-fun f36 (S34 S29) S33)
(declare-fun f37 () S34)
(declare-fun f38 (S35 S35) S1)
(declare-fun f39 (S36 S35) S35)
(declare-fun f40 (S37 S35) S36)
(declare-fun f41 () S37)
(declare-fun f42 (S38 S11) S35)
(declare-fun f43 () S38)
(declare-fun f44 (S30) S11)
(declare-fun f45 () S30)
(declare-fun f46 (S39 S23) S35)
(declare-fun f47 () S39)
(declare-fun f48 (S40 S10) S23)
(declare-fun f49 () S40)
(declare-fun f50 () S10)
(declare-fun f51 (S41 S42) S23)
(declare-fun f52 () S41)
(declare-fun f53 (S43 S44) S42)
(declare-fun f54 () S43)
(declare-fun f55 () S44)
(declare-fun f56 (S29) S45)
(declare-fun f57 () S29)
(declare-fun f58 (S44) S45)
(declare-fun f59 (S46 S10 S47) S1)
(declare-fun f60 () S46)
(declare-fun f61 () S47)
(declare-fun f62 () S29)
(declare-fun f63 (S48 S49) S29)
(declare-fun f64 (S50 S44) S48)
(declare-fun f65 (S51 S29) S50)
(declare-fun f66 () S51)
(declare-fun f67 (S52 S20) S49)
(declare-fun f68 () S52)
(declare-fun f69 (S47) S17)
(declare-fun f70 (S29 S44) S49)
(declare-fun f71 (S30 S10) S53)
(declare-fun f72 (S42) S53)
(declare-fun f73 (S10 S11) S1)
(declare-fun f74 (S54 S20) S53)
(declare-fun f75 (S54) S16)
(declare-fun f76 (S55 S24) S53)
(declare-fun f77 (S55) S25)
(declare-fun f78 (S56 S3) S53)
(declare-fun f79 (S56) S4)
(declare-fun f80 (S17 S13) S53)
(declare-fun f81 (S17) S9)
(declare-fun f82 (S52) S16)
(declare-fun f83 (S57 S24) S49)
(declare-fun f84 (S57) S25)
(declare-fun f85 (S58 S3) S49)
(declare-fun f86 (S58) S4)
(declare-fun f87 (S59 S13) S49)
(declare-fun f88 (S59) S9)
(declare-fun f89 (S60 S10) S49)
(declare-fun f90 (S60) S11)
(declare-fun f91 (S61 S20) S45)
(declare-fun f92 (S61) S16)
(declare-fun f93 (S62 S24) S45)
(declare-fun f94 (S62) S25)
(declare-fun f95 (S63 S3) S45)
(declare-fun f96 (S63) S4)
(declare-fun f97 (S64 S13) S45)
(declare-fun f98 (S64) S9)
(declare-fun f99 (S65 S10) S45)
(declare-fun f100 (S65) S11)
(declare-fun f101 (S66 S20) S35)
(declare-fun f102 (S66) S16)
(declare-fun f103 (S67 S24) S35)
(declare-fun f104 (S67) S25)
(declare-fun f105 (S68 S3) S35)
(declare-fun f106 (S68) S4)
(declare-fun f107 (S69 S13) S35)
(declare-fun f108 (S69) S9)
(declare-fun f109 (S70 S10) S35)
(declare-fun f110 (S70) S11)
(declare-fun f111 (S71 S24) S26)
(declare-fun f112 (S72 S23) S71)
(declare-fun f113 (S46) S72)
(declare-fun f114 (S46) S72)
(declare-fun f115 (S9 S13) S1)
(declare-fun f116 (S2 S6) S1)
(declare-fun f117 (S16 S20) S1)
(declare-fun f118 (S46) S2)
(declare-fun f119 (S73 S10) S40)
(declare-fun f120 (S74 S23) S73)
(declare-fun f121 () S74)
(assert (not (= f1 f2)))
(assert (forall ((?v0 S2) (?v1 S3) (?v2 S3)) (= (= (f3 (f4 (f5 ?v0) ?v1) ?v2) f1) (= (f6 (f7 (f8 f9 ?v1) ?v2) ?v0) f1))))
(assert (forall ((?v0 S9) (?v1 S10) (?v2 S10)) (= (= (f10 (f11 (f12 ?v0) ?v1) ?v2) f1) (= (f13 (f14 (f15 f16 ?v1) ?v2) ?v0) f1))))
(assert (forall ((?v0 S16) (?v1 S10) (?v2 S17)) (= (= (f17 (f18 (f19 ?v0) ?v1) ?v2) f1) (= (f20 (f21 (f22 f23 ?v1) ?v2) ?v0) f1))))
(assert (forall ((?v0 S4) (?v1 S23) (?v2 S24)) (= (= (f24 (f25 (f26 ?v0) ?v1) ?v2) f1) (= (f27 (f28 (f29 f30 ?v1) ?v2) ?v0) f1))))
(assert (forall ((?v0 S25) (?v1 S29) (?v2 S30)) (= (= (f31 (f32 (f33 ?v0) ?v1) ?v2) f1) (= (f34 (f35 (f36 f37 ?v1) ?v2) ?v0) f1))))
(assert (let ((?v_0 (f40 f41 (f42 f43 (f44 f45))))) (not (= (f38 (f39 ?v_0 (f46 f47 (f48 f49 f50))) (f39 ?v_0 (f46 f47 (f51 f52 (f53 f54 f55))))) f1))))
(assert (= (f56 f57) (f58 f55)))
(assert (= (f59 f60 f50 f61) f1))
(assert (= f62 (f63 (f64 (f65 f66 f57) f55) (f67 f68 (f21 (f22 f23 f50) (f69 f61))))))
(assert (forall ((?v0 S29) (?v1 S44)) (= (f63 (f64 (f65 f66 ?v0) ?v1) (f70 ?v0 ?v1)) ?v0)))
(assert (forall ((?v0 S35) (?v1 S35) (?v2 S35)) (=> (= (f38 ?v0 ?v1) f1) (= (f38 (f39 (f40 f41 ?v0) ?v2) (f39 (f40 f41 ?v1) ?v2)) f1))))
(assert (forall ((?v0 S42) (?v1 S10)) (not (= (f51 f52 ?v0) (f48 f49 ?v1)))))
(assert (forall ((?v0 S10) (?v1 S42)) (not (= (f48 f49 ?v0) (f51 f52 ?v1)))))
(assert (forall ((?v0 S30) (?v1 S10) (?v2 S42)) (=> (= (f71 ?v0 ?v1) (f72 ?v2)) (= (f73 ?v1 (f44 ?v0)) f1))))
(assert (forall ((?v0 S54) (?v1 S20) (?v2 S42)) (=> (= (f74 ?v0 ?v1) (f72 ?v2)) (= (f20 ?v1 (f75 ?v0)) f1))))
(assert (forall ((?v0 S55) (?v1 S24) (?v2 S42)) (=> (= (f76 ?v0 ?v1) (f72 ?v2)) (= (f34 ?v1 (f77 ?v0)) f1))))
(assert (forall ((?v0 S56) (?v1 S3) (?v2 S42)) (=> (= (f78 ?v0 ?v1) (f72 ?v2)) (= (f27 ?v1 (f79 ?v0)) f1))))
(assert (forall ((?v0 S17) (?v1 S13) (?v2 S42)) (=> (= (f80 ?v0 ?v1) (f72 ?v2)) (= (f13 ?v1 (f81 ?v0)) f1))))
(assert (forall ((?v0 S52) (?v1 S20) (?v2 S20)) (=> (= (f67 ?v0 ?v1) (f67 f68 ?v2)) (= (f20 ?v1 (f82 ?v0)) f1))))
(assert (forall ((?v0 S57) (?v1 S24) (?v2 S20)) (=> (= (f83 ?v0 ?v1) (f67 f68 ?v2)) (= (f34 ?v1 (f84 ?v0)) f1))))
(assert (forall ((?v0 S58) (?v1 S3) (?v2 S20)) (=> (= (f85 ?v0 ?v1) (f67 f68 ?v2)) (= (f27 ?v1 (f86 ?v0)) f1))))
(assert (forall ((?v0 S59) (?v1 S13) (?v2 S20)) (=> (= (f87 ?v0 ?v1) (f67 f68 ?v2)) (= (f13 ?v1 (f88 ?v0)) f1))))
(assert (forall ((?v0 S60) (?v1 S10) (?v2 S20)) (=> (= (f89 ?v0 ?v1) (f67 f68 ?v2)) (= (f73 ?v1 (f90 ?v0)) f1))))
(assert (forall ((?v0 S61) (?v1 S20) (?v2 S44)) (=> (= (f91 ?v0 ?v1) (f58 ?v2)) (= (f20 ?v1 (f92 ?v0)) f1))))
(assert (forall ((?v0 S62) (?v1 S24) (?v2 S44)) (=> (= (f93 ?v0 ?v1) (f58 ?v2)) (= (f34 ?v1 (f94 ?v0)) f1))))
(assert (forall ((?v0 S63) (?v1 S3) (?v2 S44)) (=> (= (f95 ?v0 ?v1) (f58 ?v2)) (= (f27 ?v1 (f96 ?v0)) f1))))
(assert (forall ((?v0 S64) (?v1 S13) (?v2 S44)) (=> (= (f97 ?v0 ?v1) (f58 ?v2)) (= (f13 ?v1 (f98 ?v0)) f1))))
(assert (forall ((?v0 S65) (?v1 S10) (?v2 S44)) (=> (= (f99 ?v0 ?v1) (f58 ?v2)) (= (f73 ?v1 (f100 ?v0)) f1))))
(assert (forall ((?v0 S66) (?v1 S20) (?v2 S11)) (=> (= (f101 ?v0 ?v1) (f42 f43 ?v2)) (= (f20 ?v1 (f102 ?v0)) f1))))
(assert (forall ((?v0 S67) (?v1 S24) (?v2 S11)) (=> (= (f103 ?v0 ?v1) (f42 f43 ?v2)) (= (f34 ?v1 (f104 ?v0)) f1))))
(assert (forall ((?v0 S68) (?v1 S3) (?v2 S11)) (=> (= (f105 ?v0 ?v1) (f42 f43 ?v2)) (= (f27 ?v1 (f106 ?v0)) f1))))
(assert (forall ((?v0 S69) (?v1 S13) (?v2 S11)) (=> (= (f107 ?v0 ?v1) (f42 f43 ?v2)) (= (f13 ?v1 (f108 ?v0)) f1))))
(assert (forall ((?v0 S70) (?v1 S10) (?v2 S11)) (=> (= (f109 ?v0 ?v1) (f42 f43 ?v2)) (= (f73 ?v1 (f110 ?v0)) f1))))
(assert (forall ((?v0 S29) (?v1 S44) (?v2 S20) (?v3 S44) (?v4 S20)) (let ((?v_1 (f67 f68 ?v4)) (?v_0 (= ?v3 ?v1))) (= (= (f70 (f63 (f64 (f65 f66 ?v0) ?v1) (f67 f68 ?v2)) ?v3) ?v_1) (or (and ?v_0 (= ?v2 ?v4)) (and (not ?v_0) (= (f70 ?v0 ?v3) ?v_1)))))))
(assert (forall ((?v0 S29) (?v1 S44) (?v2 S20)) (let ((?v_0 (f67 f68 ?v2))) (=> (= (f70 ?v0 ?v1) ?v_0) (= (f63 (f64 (f65 f66 ?v0) ?v1) ?v_0) ?v0)))))
(assert (forall ((?v0 S29) (?v1 S44) (?v2 S20) (?v3 S29) (?v4 S20)) (=> (= (f63 (f64 (f65 f66 ?v0) ?v1) (f67 f68 ?v2)) (f63 (f64 (f65 f66 ?v3) ?v1) (f67 f68 ?v4))) (= ?v2 ?v4))))
(assert (forall ((?v0 S29) (?v1 S44) (?v2 S46) (?v3 S10) (?v4 S47) (?v5 S29) (?v6 S30)) (=> (= (f56 ?v0) (f58 ?v1)) (=> (= (f59 ?v2 ?v3 ?v4) f1) (=> (= ?v5 (f63 (f64 (f65 f66 ?v0) ?v1) (f67 f68 (f21 (f22 f23 ?v3) (f69 ?v4))))) (= (f24 (f25 (f111 (f112 (f113 ?v2) (f48 f49 ?v3)) (f35 (f36 f37 ?v0) ?v6)) (f51 f52 (f53 f54 ?v1))) (f35 (f36 f37 ?v5) ?v6)) f1))))))
(assert (forall ((?v0 S29) (?v1 S44) (?v2 S46) (?v3 S10) (?v4 S47) (?v5 S29) (?v6 S30)) (=> (= (f56 ?v0) (f58 ?v1)) (=> (= (f59 ?v2 ?v3 ?v4) f1) (=> (= ?v5 (f63 (f64 (f65 f66 ?v0) ?v1) (f67 f68 (f21 (f22 f23 ?v3) (f69 ?v4))))) (= (f24 (f25 (f111 (f112 (f114 ?v2) (f48 f49 ?v3)) (f35 (f36 f37 ?v0) ?v6)) (f51 f52 (f53 f54 ?v1))) (f35 (f36 f37 ?v5) ?v6)) f1))))))
(assert (forall ((?v0 S2) (?v1 S2)) (= (= (f5 ?v0) (f5 ?v1)) (= ?v0 ?v1))))
(assert (forall ((?v0 S9) (?v1 S9)) (= (= (f12 ?v0) (f12 ?v1)) (= ?v0 ?v1))))
(assert (forall ((?v0 S4) (?v1 S4)) (= (= (f26 ?v0) (f26 ?v1)) (= ?v0 ?v1))))
(assert (forall ((?v0 S25) (?v1 S25)) (= (= (f33 ?v0) (f33 ?v1)) (= ?v0 ?v1))))
(assert (forall ((?v0 S16) (?v1 S16)) (= (= (f19 ?v0) (f19 ?v1)) (= ?v0 ?v1))))
(assert (forall ((?v0 S46) (?v1 S42) (?v2 S24) (?v3 S23) (?v4 S24)) (let ((?v_0 (f51 f52 ?v1))) (=> (= (f24 (f25 (f111 (f112 (f114 ?v0) ?v_0) ?v2) ?v3) ?v4) f1) (=> (=> (= ?v3 ?v_0) (=> (= ?v4 ?v2) false)) false)))))
(assert (forall ((?v0 S46) (?v1 S42) (?v2 S24)) (let ((?v_0 (f51 f52 ?v1))) (= (f24 (f25 (f111 (f112 (f114 ?v0) ?v_0) ?v2) ?v_0) ?v2) f1))))
(assert (forall ((?v0 S10) (?v1 S10) (?v2 S10) (?v3 S10)) (=> (= (f14 (f15 f16 ?v0) ?v1) (f14 (f15 f16 ?v2) ?v3)) (=> (=> (= ?v0 ?v2) (=> (= ?v1 ?v3) false)) false))))
(assert (forall ((?v0 S23) (?v1 S24) (?v2 S23) (?v3 S24)) (=> (= (f28 (f29 f30 ?v0) ?v1) (f28 (f29 f30 ?v2) ?v3)) (=> (=> (= ?v0 ?v2) (=> (= ?v1 ?v3) false)) false))))
(assert (forall ((?v0 S3) (?v1 S3) (?v2 S3) (?v3 S3)) (=> (= (f7 (f8 f9 ?v0) ?v1) (f7 (f8 f9 ?v2) ?v3)) (=> (=> (= ?v0 ?v2) (=> (= ?v1 ?v3) false)) false))))
(assert (forall ((?v0 S29) (?v1 S30) (?v2 S29) (?v3 S30)) (=> (= (f35 (f36 f37 ?v0) ?v1) (f35 (f36 f37 ?v2) ?v3)) (=> (=> (= ?v0 ?v2) (=> (= ?v1 ?v3) false)) false))))
(assert (forall ((?v0 S10) (?v1 S17) (?v2 S10) (?v3 S17)) (=> (= (f21 (f22 f23 ?v0) ?v1) (f21 (f22 f23 ?v2) ?v3)) (=> (=> (= ?v0 ?v2) (=> (= ?v1 ?v3) false)) false))))
(assert (forall ((?v0 S10) (?v1 S10) (?v2 S10) (?v3 S10)) (= (= (f14 (f15 f16 ?v0) ?v1) (f14 (f15 f16 ?v2) ?v3)) (and (= ?v0 ?v2) (= ?v1 ?v3)))))
(assert (forall ((?v0 S23) (?v1 S24) (?v2 S23) (?v3 S24)) (= (= (f28 (f29 f30 ?v0) ?v1) (f28 (f29 f30 ?v2) ?v3)) (and (= ?v0 ?v2) (= ?v1 ?v3)))))
(assert (forall ((?v0 S3) (?v1 S3) (?v2 S3) (?v3 S3)) (= (= (f7 (f8 f9 ?v0) ?v1) (f7 (f8 f9 ?v2) ?v3)) (and (= ?v0 ?v2) (= ?v1 ?v3)))))
(assert (forall ((?v0 S29) (?v1 S30) (?v2 S29) (?v3 S30)) (= (= (f35 (f36 f37 ?v0) ?v1) (f35 (f36 f37 ?v2) ?v3)) (and (= ?v0 ?v2) (= ?v1 ?v3)))))
(assert (forall ((?v0 S10) (?v1 S17) (?v2 S10) (?v3 S17)) (= (= (f21 (f22 f23 ?v0) ?v1) (f21 (f22 f23 ?v2) ?v3)) (and (= ?v0 ?v2) (= ?v1 ?v3)))))
(assert (forall ((?v0 S9)) (= (forall ((?v1 S13)) (= (f115 ?v0 ?v1) f1)) (forall ((?v1 S10) (?v2 S10)) (= (f115 ?v0 (f14 (f15 f16 ?v1) ?v2)) f1)))))
(assert (forall ((?v0 S4)) (= (forall ((?v1 S3)) (= (f3 ?v0 ?v1) f1)) (forall ((?v1 S23) (?v2 S24)) (= (f3 ?v0 (f28 (f29 f30 ?v1) ?v2)) f1)))))
(assert (forall ((?v0 S2)) (= (forall ((?v1 S6)) (= (f116 ?v0 ?v1) f1)) (forall ((?v1 S3) (?v2 S3)) (= (f116 ?v0 (f7 (f8 f9 ?v1) ?v2)) f1)))))
(assert (forall ((?v0 S25)) (= (forall ((?v1 S24)) (= (f24 ?v0 ?v1) f1)) (forall ((?v1 S29) (?v2 S30)) (= (f24 ?v0 (f35 (f36 f37 ?v1) ?v2)) f1)))))
(assert (forall ((?v0 S16)) (= (forall ((?v1 S20)) (= (f117 ?v0 ?v1) f1)) (forall ((?v1 S10) (?v2 S17)) (= (f117 ?v0 (f21 (f22 f23 ?v1) ?v2)) f1)))))
(assert (forall ((?v0 S42) (?v1 S42)) (= (= (f51 f52 ?v0) (f51 f52 ?v1)) (= ?v0 ?v1))))
(assert (forall ((?v0 S29) (?v1 S44) (?v2 S49) (?v3 S44)) (= (f70 (f63 (f64 (f65 f66 ?v0) ?v1) ?v2) ?v3) (ite (= ?v3 ?v1) ?v2 (f70 ?v0 ?v3)))))
(assert (forall ((?v0 S29) (?v1 S44) (?v2 S49)) (=> (= (f70 ?v0 ?v1) ?v2) (= (f63 (f64 (f65 f66 ?v0) ?v1) ?v2) ?v0))))
(assert (forall ((?v0 S44) (?v1 S44) (?v2 S29) (?v3 S49)) (=> (not (= ?v0 ?v1)) (= (f70 (f63 (f64 (f65 f66 ?v2) ?v1) ?v3) ?v0) (f70 ?v2 ?v0)))))
(assert (forall ((?v0 S44) (?v1 S44) (?v2 S29) (?v3 S49) (?v4 S49)) (let ((?v_0 (f65 f66 ?v2))) (=> (not (= ?v0 ?v1)) (= (f63 (f64 (f65 f66 (f63 (f64 ?v_0 ?v0) ?v3)) ?v1) ?v4) (f63 (f64 (f65 f66 (f63 (f64 ?v_0 ?v1) ?v4)) ?v0) ?v3))))))
(assert (forall ((?v0 S29) (?v1 S44) (?v2 S49) (?v3 S44)) (= (f70 (f63 (f64 (f65 f66 ?v0) ?v1) ?v2) ?v3) (ite (= ?v3 ?v1) ?v2 (f70 ?v0 ?v3)))))
(assert (forall ((?v0 S29) (?v1 S44) (?v2 S49)) (= (f70 (f63 (f64 (f65 f66 ?v0) ?v1) ?v2) ?v1) ?v2)))
(assert (forall ((?v0 S29) (?v1 S44) (?v2 S49) (?v3 S49)) (let ((?v_0 (f64 (f65 f66 ?v0) ?v1))) (= (f63 (f64 (f65 f66 (f63 ?v_0 ?v2)) ?v1) ?v3) (f63 ?v_0 ?v3)))))
(assert (forall ((?v0 S29) (?v1 S44) (?v2 S49)) (= (= (f63 (f64 (f65 f66 ?v0) ?v1) ?v2) ?v0) (= (f70 ?v0 ?v1) ?v2))))
(assert (forall ((?v0 S10) (?v1 S10)) (= (= (f48 f49 ?v0) (f48 f49 ?v1)) (= ?v0 ?v1))))
(assert (forall ((?v0 S35) (?v1 S35) (?v2 S35)) (let ((?v_0 (f40 f41 ?v0))) (= (f39 (f40 f41 (f39 ?v_0 ?v1)) ?v2) (f39 ?v_0 (f39 (f40 f41 ?v1) ?v2))))))
(assert (forall ((?v0 S29) (?v1 S44) (?v2 S46) (?v3 S10) (?v4 S47) (?v5 S29) (?v6 S30)) (=> (= (f56 ?v0) (f58 ?v1)) (=> (= (f59 ?v2 ?v3 ?v4) f1) (=> (= ?v5 (f63 (f64 (f65 f66 ?v0) ?v1) (f67 f68 (f21 (f22 f23 ?v3) (f69 ?v4))))) (= (f6 (f7 (f8 f9 (f28 (f29 f30 (f48 f49 ?v3)) (f35 (f36 f37 ?v0) ?v6))) (f28 (f29 f30 (f51 f52 (f53 f54 ?v1))) (f35 (f36 f37 ?v5) ?v6))) (f118 ?v2)) f1))))))
(assert (forall ((?v0 S10) (?v1 S30)) (=> (= (f73 ?v0 (f44 ?v1)) f1) (exists ((?v2 S42)) (= (f71 ?v1 ?v0) (f72 ?v2))))))
(assert (forall ((?v0 S20) (?v1 S54)) (=> (= (f20 ?v0 (f75 ?v1)) f1) (exists ((?v2 S42)) (= (f74 ?v1 ?v0) (f72 ?v2))))))
(assert (forall ((?v0 S24) (?v1 S55)) (=> (= (f34 ?v0 (f77 ?v1)) f1) (exists ((?v2 S42)) (= (f76 ?v1 ?v0) (f72 ?v2))))))
(assert (forall ((?v0 S3) (?v1 S56)) (=> (= (f27 ?v0 (f79 ?v1)) f1) (exists ((?v2 S42)) (= (f78 ?v1 ?v0) (f72 ?v2))))))
(assert (forall ((?v0 S13) (?v1 S17)) (=> (= (f13 ?v0 (f81 ?v1)) f1) (exists ((?v2 S42)) (= (f80 ?v1 ?v0) (f72 ?v2))))))
(assert (forall ((?v0 S20) (?v1 S52)) (=> (= (f20 ?v0 (f82 ?v1)) f1) (exists ((?v2 S20)) (= (f67 ?v1 ?v0) (f67 f68 ?v2))))))
(assert (forall ((?v0 S24) (?v1 S57)) (=> (= (f34 ?v0 (f84 ?v1)) f1) (exists ((?v2 S20)) (= (f83 ?v1 ?v0) (f67 f68 ?v2))))))
(assert (forall ((?v0 S3) (?v1 S58)) (=> (= (f27 ?v0 (f86 ?v1)) f1) (exists ((?v2 S20)) (= (f85 ?v1 ?v0) (f67 f68 ?v2))))))
(assert (forall ((?v0 S13) (?v1 S59)) (=> (= (f13 ?v0 (f88 ?v1)) f1) (exists ((?v2 S20)) (= (f87 ?v1 ?v0) (f67 f68 ?v2))))))
(assert (forall ((?v0 S10) (?v1 S60)) (=> (= (f73 ?v0 (f90 ?v1)) f1) (exists ((?v2 S20)) (= (f89 ?v1 ?v0) (f67 f68 ?v2))))))
(assert (forall ((?v0 S20) (?v1 S61)) (=> (= (f20 ?v0 (f92 ?v1)) f1) (exists ((?v2 S44)) (= (f91 ?v1 ?v0) (f58 ?v2))))))
(assert (forall ((?v0 S24) (?v1 S62)) (=> (= (f34 ?v0 (f94 ?v1)) f1) (exists ((?v2 S44)) (= (f93 ?v1 ?v0) (f58 ?v2))))))
(assert (forall ((?v0 S3) (?v1 S63)) (=> (= (f27 ?v0 (f96 ?v1)) f1) (exists ((?v2 S44)) (= (f95 ?v1 ?v0) (f58 ?v2))))))
(assert (forall ((?v0 S13) (?v1 S64)) (=> (= (f13 ?v0 (f98 ?v1)) f1) (exists ((?v2 S44)) (= (f97 ?v1 ?v0) (f58 ?v2))))))
(assert (forall ((?v0 S10) (?v1 S65)) (=> (= (f73 ?v0 (f100 ?v1)) f1) (exists ((?v2 S44)) (= (f99 ?v1 ?v0) (f58 ?v2))))))
(assert (forall ((?v0 S20) (?v1 S66)) (=> (= (f20 ?v0 (f102 ?v1)) f1) (exists ((?v2 S11)) (= (f101 ?v1 ?v0) (f42 f43 ?v2))))))
(assert (forall ((?v0 S24) (?v1 S67)) (=> (= (f34 ?v0 (f104 ?v1)) f1) (exists ((?v2 S11)) (= (f103 ?v1 ?v0) (f42 f43 ?v2))))))
(assert (forall ((?v0 S3) (?v1 S68)) (=> (= (f27 ?v0 (f106 ?v1)) f1) (exists ((?v2 S11)) (= (f105 ?v1 ?v0) (f42 f43 ?v2))))))
(assert (forall ((?v0 S13) (?v1 S69)) (=> (= (f13 ?v0 (f108 ?v1)) f1) (exists ((?v2 S11)) (= (f107 ?v1 ?v0) (f42 f43 ?v2))))))
(assert (forall ((?v0 S10) (?v1 S70)) (=> (= (f73 ?v0 (f110 ?v1)) f1) (exists ((?v2 S11)) (= (f109 ?v1 ?v0) (f42 f43 ?v2))))))
(assert (forall ((?v0 S46) (?v1 S23) (?v2 S24) (?v3 S44) (?v4 S29) (?v5 S30) (?v6 S10) (?v7 S17) (?v8 S10) (?v9 S10) (?v10 S42)) (let ((?v_0 (f114 ?v0)) (?v_1 (f35 (f36 f37 ?v4) ?v5))) (=> (= (f24 (f25 (f111 (f112 ?v_0 ?v1) ?v2) (f51 f52 (f53 f54 ?v3))) ?v_1) f1) (=> (= (f70 ?v4 ?v3) (f67 f68 (f21 (f22 f23 ?v6) ?v7))) (=> (= (f80 ?v7 (f14 (f15 f16 ?v8) ?v9)) (f72 ?v10)) (= (f24 (f25 (f111 (f112 ?v_0 (f48 (f119 (f120 f121 ?v1) ?v8) ?v9)) ?v2) (f51 f52 ?v10)) ?v_1) f1)))))))
(check-sat)
(exit)
